%BLOCK LATTICE_CART
0.0 5.74360066099495 5.74360066099495
5.74360066099495 0.0 5.74360066099495
5.74360066099495 5.74360066099495 0.0
%ENDBLOCK LATTICE_CART

%BLOCK POSITIONS_ABS
1 5.74360066099495 2.066547517825983 7.083008335138973
2 5.74360066099495 2.066547517825983 4.404192986850928
3 5.74360066099495 9.420653804163917 4.404192986850928
4 5.74360066099495 9.420653804163917 7.083008335138973
5 9.420653804163917 7.083008335138973 5.74360066099495
6 9.420653804163917 4.404192986850928 5.74360066099495
7 2.066547517825983 4.404192986850928 5.74360066099495
8 2.066547517825983 7.083008335138973 5.74360066099495
9 4.404192986850928 5.74360066099495 2.066547517825983
10 7.083008335138973 5.74360066099495 2.066547517825983
11 7.083008335138973 5.74360066099495 9.420653804163917
12 4.404192986850928 5.74360066099495 9.420653804163917
13 7.810148178820933 5.74360066099495 4.404192986850928
14 7.810148178820933 5.74360066099495 7.083008335138973
15 3.6770531431689673 5.74360066099495 7.083008335138973
16 3.6770531431689673 5.74360066099495 4.404192986850928
17 7.083008335138973 3.6770531431689673 5.74360066099495
18 4.404192986850928 3.6770531431689673 5.74360066099495
19 4.404192986850928 7.810148178820933 5.74360066099495
20 7.083008335138973 7.810148178820933 5.74360066099495
21 5.74360066099495 4.404192986850928 3.6770531431689673
22 5.74360066099495 7.083008335138973 3.6770531431689673
23 5.74360066099495 7.083008335138973 7.810148178820933
24 5.74360066099495 4.404192986850928 7.810148178820933
25 0.0 0.0 0.0
26 5.74360066099495 5.74360066099495 5.74360066099495
27 2.871800330497475 2.871800330497475 2.871800330497475
28 8.615400991492423 8.615400991492423 8.615400991492423
%ENDBLOCK POSITIONS_ABS
