%BLOCK LATTICE_CART
0.0 5.801025797942502 5.801025797942502
5.801025797942502 0.0 5.801025797942502
5.801025797942502 5.801025797942502 0.0
%ENDBLOCK LATTICE_CART

%BLOCK POSITIONS_ABS
1 5.801025797942502 2.0872090820997125 7.1538250140226936
2 5.801025797942502 2.0872090820997125 4.448226581862311
3 5.801025797942502 9.514842513785293 4.448226581862311
4 5.801025797942502 9.514842513785293 7.1538250140226936
5 9.514842513785293 7.1538250140226936 5.801025797942502
6 9.514842513785293 4.448226581862311 5.801025797942502
7 2.0872090820997125 4.448226581862311 5.801025797942502
8 2.0872090820997125 7.1538250140226936 5.801025797942502
9 4.448226581862311 5.801025797942502 2.0872090820997125
10 7.1538250140226936 5.801025797942502 2.0872090820997125
11 7.1538250140226936 5.801025797942502 9.514842513785293
12 4.448226581862311 5.801025797942502 9.514842513785293
13 7.888234880042214 5.801025797942502 4.448226581862311
14 7.888234880042214 5.801025797942502 7.1538250140226936
15 3.71381671584279 5.801025797942502 7.1538250140226936
16 3.71381671584279 5.801025797942502 4.448226581862311
17 7.1538250140226936 3.71381671584279 5.801025797942502
18 4.448226581862311 3.71381671584279 5.801025797942502
19 4.448226581862311 7.888234880042214 5.801025797942502
20 7.1538250140226936 7.888234880042214 5.801025797942502
21 5.801025797942502 4.448226581862311 3.71381671584279
22 5.801025797942502 7.1538250140226936 3.71381671584279
23 5.801025797942502 7.1538250140226936 7.888234880042214
24 5.801025797942502 4.448226581862311 7.888234880042214
25 0.0 0.0 0.0
26 5.801025797942502 5.801025797942502 5.801025797942502
27 2.900512898971251 2.900512898971251 2.900512898971251
28 8.701538696913753 8.701538696913753 8.701538696913753
%ENDBLOCK POSITIONS_ABS
