%BLOCK LATTICE_CART
0.0 5.8584679841860225 5.8584679841860225
5.8584679841860225 0.0 5.8584679841860225
5.8584679841860225 5.8584679841860225 0.0
%ENDBLOCK LATTICE_CART

%BLOCK POSITIONS_ABS
1 5.8584679841860225 2.107876780710131 7.2246627180982035
2 5.8584679841860225 2.107876780710131 4.492273250273842
3 5.8584679841860225 9.609059187661915 4.492273250273842
4 5.8584679841860225 9.609059187661915 7.2246627180982035
5 9.609059187661915 7.2246627180982035 5.8584679841860225
6 9.609059187661915 4.492273250273842 5.8584679841860225
7 2.107876780710131 4.492273250273842 5.8584679841860225
8 2.107876780710131 7.2246627180982035 5.8584679841860225
9 4.492273250273842 5.8584679841860225 2.107876780710131
10 7.2246627180982035 5.8584679841860225 2.107876780710131
11 7.2246627180982035 5.8584679841860225 9.609059187661915
12 4.492273250273842 5.8584679841860225 9.609059187661915
13 7.966344764896152 5.8584679841860225 4.492273250273842
14 7.966344764896152 5.8584679841860225 7.2246627180982035
15 3.7505912034758917 5.8584679841860225 7.2246627180982035
16 3.7505912034758917 5.8584679841860225 4.492273250273842
17 7.2246627180982035 3.7505912034758917 5.8584679841860225
18 4.492273250273842 3.7505912034758917 5.8584679841860225
19 4.492273250273842 7.966344764896152 5.8584679841860225
20 7.2246627180982035 7.966344764896152 5.8584679841860225
21 5.8584679841860225 4.492273250273842 3.7505912034758917
22 5.8584679841860225 7.2246627180982035 3.7505912034758917
23 5.8584679841860225 7.2246627180982035 7.966344764896152
24 5.8584679841860225 4.492273250273842 7.966344764896152
25 0.0 0.0 0.0
26 5.8584679841860225 5.8584679841860225 5.8584679841860225
27 2.9292339920930113 2.9292339920930113 2.9292339920930113
28 8.787701976279033 8.787701976279033 8.787701976279033
%ENDBLOCK POSITIONS_ABS
