%BLOCK LATTICE_CART
0.0 5.6861678843160055 5.6861678843160055
5.6861678843160055 0.0 5.6861678843160055
5.6861678843160055 5.6861678843160055 0.0
%ENDBLOCK LATTICE_CART

%BLOCK POSITIONS_ABS
1 5.6861678843160055 2.045883204776899 7.012182234938499
2 5.6861678843160055 2.045883204776899 4.360153533693513
3 5.6861678843160055 9.326452563855113 4.360153533693513
4 5.6861678843160055 9.326452563855113 7.012182234938499
5 9.326452563855113 7.012182234938499 5.6861678843160055
6 9.326452563855113 4.360153533693513 5.6861678843160055
7 2.045883204776899 4.360153533693513 5.6861678843160055
8 2.045883204776899 7.012182234938499 5.6861678843160055
9 4.360153533693513 5.6861678843160055 2.045883204776899
10 7.012182234938499 5.6861678843160055 2.045883204776899
11 7.012182234938499 5.6861678843160055 9.326452563855113
12 4.360153533693513 5.6861678843160055 9.326452563855113
13 7.732051089092903 5.6861678843160055 4.360153533693513
14 7.732051089092903 5.6861678843160055 7.012182234938499
15 3.640284679539107 5.6861678843160055 7.012182234938499
16 3.640284679539107 5.6861678843160055 4.360153533693513
17 7.012182234938499 3.640284679539107 5.6861678843160055
18 4.360153533693513 3.640284679539107 5.6861678843160055
19 4.360153533693513 7.732051089092903 5.6861678843160055
20 7.012182234938499 7.732051089092903 5.6861678843160055
21 5.6861678843160055 4.360153533693513 3.640284679539107
22 5.6861678843160055 7.012182234938499 3.640284679539107
23 5.6861678843160055 7.012182234938499 7.732051089092903
24 5.6861678843160055 4.360153533693513 7.732051089092903
25 0.0 0.0 0.0
26 5.6861678843160055 5.6861678843160055 5.6861678843160055
27 2.8430839421580028 2.8430839421580028 2.8430839421580028
28 8.529251826474008 8.529251826474008 8.529251826474008
%ENDBLOCK POSITIONS_ABS
