%BLOCK LATTICE_CART
0.0 5.6287256980724845 5.6287256980724845
5.6287256980724845 0.0 5.6287256980724845
5.6287256980724845 5.6287256980724845 0.0
%ENDBLOCK LATTICE_CART

%BLOCK POSITIONS_ABS
1 5.6287256980724845 2.02521550616648 6.941344530862988
2 5.6287256980724845 2.02521550616648 4.316106865281982
3 5.6287256980724845 9.23223588997849 4.316106865281982
4 5.6287256980724845 9.23223588997849 6.941344530862988
5 9.23223588997849 6.941344530862988 5.6287256980724845
6 9.23223588997849 4.316106865281982 5.6287256980724845
7 2.02521550616648 4.316106865281982 5.6287256980724845
8 2.02521550616648 6.941344530862988 5.6287256980724845
9 4.316106865281982 5.6287256980724845 2.02521550616648
10 6.941344530862988 5.6287256980724845 2.02521550616648
11 6.941344530862988 5.6287256980724845 9.23223588997849
12 4.316106865281982 5.6287256980724845 9.23223588997849
13 7.653941204238964 5.6287256980724845 4.316106865281982
14 7.653941204238964 5.6287256980724845 6.941344530862988
15 3.6035101919060044 5.6287256980724845 6.941344530862988
16 3.6035101919060044 5.6287256980724845 4.316106865281982
17 6.941344530862988 3.6035101919060044 5.6287256980724845
18 4.316106865281982 3.6035101919060044 5.6287256980724845
19 4.316106865281982 7.653941204238964 5.6287256980724845
20 6.941344530862988 7.653941204238964 5.6287256980724845
21 5.6287256980724845 4.316106865281982 3.6035101919060044
22 5.6287256980724845 6.941344530862988 3.6035101919060044
23 5.6287256980724845 6.941344530862988 7.653941204238964
24 5.6287256980724845 4.316106865281982 7.653941204238964
25 0.0 0.0 0.0
26 5.6287256980724845 5.6287256980724845 5.6287256980724845
27 2.8143628490362422 2.8143628490362422 2.8143628490362422
28 8.443088547108726 8.443088547108726 8.443088547108726
%ENDBLOCK POSITIONS_ABS
